m = 4; % number of couriers
n = 6; % number of packages

l = [10, 7, 7, 4]; % maximum carriable weight per courier
s = [3, 4, 6, 5, 4, 6]; % weight of each package

D = % distance matrix 
	 [| 2, 4, 2, 4, 6, 5, 6
	 | 4, 6, 8, 8, 5, 2, 8
	 | 2, 5, 3, 3, 2, 2, 4
	 | 3, 7, 2, 8, 8, 2, 6
	 | 5, 4, 2, 8, 2, 5, 5
	 | 6, 4, 6, 2, 6, 4, 3
	 | 3, 5, 2, 2, 7, 2, 5
	 |];